569
4857
5173
1676
9427
5457
8478
8254
2573
1178
6870
4010
2876
7580
8590
9500
2670
8010
5573
3952
8068
9545
7269
3126
9889
7473
7413
7443
4496
8349
2664
2178
9319
1709
7244
9567
3884
505
8389
3914
7992
1663
8541
2632
2832
8163
1313
666
1909
8270
4293
